* ENCODING=ISO-8859-1
NAME          CPLEX
ROWS
 N  obj1    
 G  c1      
 G  c2      
 G  c3      
 G  c4      
 G  c5      
 G  c6      
 G  c7      
 G  c8      
 G  c9      
 G  c10     
 G  c11     
 G  c12     
 G  c13     
 G  c14     
 G  c15     
 G  c16     
 G  c17     
 G  c18     
 G  c19     
 G  c20     
 G  c21     
 G  c22     
 G  c23     
 G  c24     
 G  c25     
 G  c26     
 G  c27     
 G  c28     
 G  c29     
 G  c30     
 G  c31     
 G  c32     
 G  c33     
 G  c34     
 G  c35     
 G  c36     
 G  c37     
 G  c38     
 G  c39     
 G  c40     
 G  c41     
 G  c42     
 G  c43     
 G  c44     
 G  c45     
 G  c46     
 G  c47     
 G  c48     
 G  c49     
 G  c50     
 G  c51     
 G  c52     
 G  c53     
 G  c54     
 G  c55     
 G  c56     
 G  c57     
 G  c58     
 G  c59     
 G  c60     
 G  c61     
 G  c62     
 G  c63     
 G  c64     
 G  c65     
 G  c66     
 G  c67     
 G  c68     
 G  c69     
 G  c70     
COLUMNS
    MARK0000  'MARKER'                 'INTORG'
    x1        obj1                            1
    x1        c12                           315
    x1        c28                           532
    x1        c29                           662
    x1        c38                           692
    x1        c41                           842
    x1        c48                           389
    x1        c51                           765
    x1        c66                           699
    x1        c68                           655
    x2        obj1                            1
    x2        c5                            672
    x2        c11                           684
    x2        c15                           949
    x2        c32                           114
    x2        c39                           907
    x2        c46                           194
    x2        c58                           384
    x3        obj1                            1
    x3        c2                            240
    x3        c33                           917
    x3        c39                           851
    x3        c42                           164
    x3        c47                           476
    x3        c54                           318
    x4        obj1                            1
    x4        c2                            968
    x4        c25                           481
    x4        c36                           135
    x4        c52                           718
    x4        c58                           391
    x4        c59                           387
    x4        c61                           700
    x4        c69                           145
    x5        obj1                            1
    x5        c17                           399
    x5        c25                           471
    x5        c26                           719
    x5        c29                           765
    x5        c50                           409
    x5        c54                           259
    x5        c63                           250
    x6        obj1                            1
    x6        c33                           125
    x6        c46                           163
    x6        c65                           624
    x7        obj1                            1
    x7        c1                            378
    x7        c2                            282
    x7        c14                           297
    x7        c16                           548
    x7        c39                           660
    x7        c45                           721
    x7        c50                           313
    x7        c59                           557
    x7        c65                           946
    x8        obj1                            1
    x8        c12                           832
    x8        c21                           922
    x8        c22                           429
    x8        c32                           272
    x8        c33                           797
    x8        c56                           663
    x9        obj1                            1
    x9        c3                            925
    x9        c11                           604
    x9        c20                           367
    x9        c52                           460
    x9        c57                           839
    x9        c61                           405
    x9        c63                           660
    x9        c70                           999
    x10       obj1                            1
    x10       c20                           484
    x10       c21                           254
    x10       c35                           850
    x10       c46                           511
    x10       c54                           330
    x10       c65                           729
    x11       obj1                            1
    x11       c11                           555
    x11       c15                           110
    x11       c24                           309
    x11       c26                           656
    x11       c32                           428
    x11       c35                           808
    x11       c64                           808
    x12       obj1                            1
    x12       c10                           796
    x12       c12                           968
    x12       c16                           412
    x12       c25                           683
    x12       c37                           416
    x12       c38                           880
    x13       obj1                            1
    x13       c10                           464
    x13       c36                           233
    x13       c50                           325
    x13       c55                           729
    x14       obj1                            1
    x14       c51                           955
    x14       c54                           569
    x14       c56                           867
    x14       c66                           719
    x15       obj1                            1
    x15       c7                            296
    x15       c12                           746
    x15       c23                           441
    x15       c24                           159
    x15       c51                           697
    x15       c59                           118
    x15       c63                           335
    x15       c65                           652
    x16       obj1                            1
    x16       c45                           261
    x16       c46                           133
    x16       c49                           818
    x16       c55                           654
    x16       c66                           852
    x16       c70                           833
    x17       obj1                            1
    x17       c13                           257
    x17       c16                           378
    x17       c18                           793
    x17       c31                           570
    x17       c41                           907
    x17       c44                           241
    x17       c57                           875
    x17       c68                           733
    x17       c70                           254
    x18       obj1                            1
    x18       c27                           576
    x18       c38                           868
    x18       c56                           831
    x18       c57                           422
    x18       c63                           545
    x18       c64                           717
    x18       c70                           221
    x19       obj1                            1
    x19       c2                            262
    x19       c6                            713
    x19       c10                           695
    x19       c24                           890
    x19       c26                           378
    x19       c28                           153
    x19       c35                           798
    x19       c39                           864
    x19       c46                           285
    x20       obj1                            1
    x20       c7                            850
    x20       c10                           344
    x20       c14                           546
    x20       c17                           658
    x20       c18                           252
    x20       c25                           608
    x20       c41                           789
    x20       c45                           296
    x20       c57                           453
    x20       c64                           508
    x20       c67                           523
    x20       c70                           965
    x21       obj1                            1
    x21       c2                            870
    x21       c7                            722
    x21       c9                            938
    x21       c20                           990
    x21       c34                           133
    x21       c47                           919
    x21       c64                           598
    x22       obj1                            1
    x22       c24                           817
    x22       c30                           223
    x22       c34                           452
    x22       c39                           914
    x22       c40                           633
    x22       c43                           129
    x22       c48                           555
    x22       c52                           949
    x22       c68                           668
    x23       obj1                            1
    x23       c16                           464
    x23       c29                           375
    x23       c40                           718
    x23       c41                           790
    x23       c49                           888
    x23       c58                           499
    x23       c61                           941
    x24       obj1                            1
    x24       c9                            730
    x24       c11                           123
    x24       c21                           408
    x24       c59                           407
    x25       obj1                            1
    x25       c4                            130
    x25       c6                            949
    x25       c8                            361
    x25       c9                            302
    x25       c13                           535
    x25       c37                           817
    x25       c40                           954
    x25       c52                           624
    x25       c55                           629
    x25       c63                           721
    x26       obj1                            1
    x26       c7                            575
    x26       c36                           263
    x26       c54                           626
    x26       c62                           349
    x27       obj1                            1
    x27       c7                            869
    x27       c9                            516
    x27       c16                           800
    x27       c39                           488
    x27       c40                           197
    x27       c44                           180
    x27       c53                           296
    x27       c65                           172
    x28       obj1                            1
    x28       c8                            621
    x28       c16                           515
    x28       c17                           509
    x28       c19                           279
    x28       c29                           606
    x28       c70                           352
    x29       obj1                            1
    x29       c10                           606
    x29       c23                           496
    x29       c32                           401
    x29       c39                           782
    x29       c43                           591
    x29       c70                           395
    x30       obj1                            1
    x30       c5                            427
    x30       c20                           386
    x30       c26                           912
    x30       c35                           222
    x30       c44                           877
    x30       c60                           262
    x30       c64                           791
    x30       c66                           599
    x31       obj1                            1
    x31       c10                           159
    x31       c30                           501
    x31       c45                           608
    x32       obj1                            1
    x32       c6                            845
    x32       c21                           614
    x32       c23                           372
    x32       c25                           647
    x32       c30                           497
    x32       c34                           329
    x32       c58                           768
    x33       obj1                            1
    x33       c3                            114
    x33       c15                           860
    x33       c28                           890
    x33       c29                           371
    x33       c30                           348
    x33       c45                           564
    x33       c56                           286
    x33       c59                           140
    x33       c61                           937
    x33       c69                           192
    x34       obj1                            1
    x34       c6                            569
    x34       c9                            667
    x34       c23                           989
    x34       c29                           880
    x34       c32                           442
    x34       c48                           727
    x34       c53                           218
    x34       c58                           848
    x34       c65                           259
    x35       obj1                            1
    x35       c1                            462
    x35       c7                            467
    x35       c10                           922
    x35       c38                           265
    x35       c49                           610
    x35       c60                           679
    x35       c61                           898
    x36       obj1                            1
    x36       c12                           373
    x36       c15                           530
    x36       c19                           868
    x36       c36                           225
    x36       c46                           694
    x36       c60                           830
    x37       obj1                            1
    x37       c2                            186
    x37       c15                           283
    x37       c26                           622
    x37       c27                           328
    x37       c39                           808
    x37       c51                           399
    x37       c67                           175
    x37       c69                           586
    x38       obj1                            1
    x38       c8                            194
    x38       c28                           688
    x38       c31                           436
    x38       c50                           476
    x38       c54                           997
    x38       c63                           474
    x39       obj1                            1
    x39       c15                           355
    x39       c31                           959
    x39       c33                           909
    x39       c42                           108
    x39       c45                           516
    x39       c46                           569
    x39       c48                           352
    x39       c51                           510
    x39       c55                           208
    x39       c67                           658
    x40       obj1                            1
    x40       c2                            251
    x40       c5                            207
    x40       c7                            908
    x40       c25                           264
    x40       c27                           385
    x40       c63                           645
    x41       obj1                            1
    x41       c1                            241
    x41       c18                           565
    x41       c21                           599
    x41       c38                           257
    x41       c48                           426
    x41       c59                           502
    x41       c66                           920
    x42       obj1                            1
    x42       c4                            230
    x42       c12                           147
    x42       c18                           836
    x42       c21                           271
    x42       c22                           248
    x42       c42                           815
    x42       c62                           337
    x43       obj1                            1
    x43       c6                            982
    x43       c12                           512
    x43       c17                           597
    x43       c27                           649
    x43       c35                           158
    x43       c53                           501
    x43       c55                           984
    x43       c56                           740
    x44       obj1                            1
    x44       c17                           404
    x44       c22                           385
    x44       c34                           327
    x44       c44                           600
    x44       c64                           629
    x44       c68                           795
    x45       obj1                            1
    x45       c3                            326
    x45       c5                            593
    x45       c10                           353
    x45       c32                           602
    x45       c51                           347
    x45       c52                           187
    x45       c55                           746
    x45       c67                           169
    x45       c68                           536
    x46       obj1                            1
    x46       c22                           401
    x46       c24                           423
    x46       c30                           381
    x46       c64                           543
    x46       c65                           930
    x46       c68                           731
    x47       obj1                            1
    x47       c13                           544
    x47       c14                           246
    x47       c20                           887
    x47       c38                           618
    x47       c41                           707
    x47       c56                           116
    x48       obj1                            1
    x48       c8                            433
    x48       c10                           456
    x48       c52                           690
    x48       c58                           593
    x48       c69                           843
    x49       obj1                            1
    x49       c32                           164
    x50       obj1                            1
    x50       c6                            257
    x50       c19                           761
    x50       c23                           945
    x50       c26                           528
    x50       c35                           924
    x50       c46                           528
    x50       c47                           259
    x50       c49                           309
    x50       c56                           902
    x51       obj1                            1
    x51       c50                           503
    x51       c55                           659
    x51       c59                           556
    x51       c68                           941
    x52       obj1                            1
    x52       c7                            297
    x52       c20                           316
    x52       c58                           636
    x52       c65                           484
    x52       c66                           957
    x52       c69                           327
    x53       obj1                            1
    x53       c1                            176
    x53       c3                            199
    x53       c12                           888
    x53       c29                           150
    x53       c31                           820
    x53       c33                           897
    x53       c61                           881
    x53       c63                           823
    x53       c70                           649
    x54       obj1                            1
    x54       c7                            399
    x54       c14                           740
    x54       c20                           273
    x54       c21                           975
    x54       c33                           758
    x54       c35                           397
    x54       c48                           424
    x54       c50                           320
    x54       c58                           208
    x55       obj1                            1
    x55       c1                            721
    x55       c5                            190
    x55       c13                           789
    x55       c20                           126
    x55       c25                           851
    x55       c48                           335
    x56       obj1                            1
    x56       c12                           661
    x56       c20                           325
    x56       c56                           721
    x56       c62                           200
    x57       obj1                            1
    x57       c9                            618
    x57       c16                           738
    x57       c17                           993
    x57       c21                           156
    x57       c22                           423
    x57       c28                           118
    x57       c33                           947
    x57       c37                           483
    x57       c48                           634
    x57       c56                           375
    x57       c63                           394
    x57       c65                           504
    x58       obj1                            1
    x58       c2                            629
    x58       c9                            927
    x58       c14                           119
    x58       c22                           889
    x59       obj1                            1
    x59       c2                            692
    x59       c19                           420
    x59       c24                           140
    x59       c26                           561
    x59       c34                           736
    x59       c40                           349
    x59       c42                           133
    x59       c58                           322
    x59       c60                           711
    x60       obj1                            1
    x60       c4                            365
    x60       c16                           570
    x60       c17                           698
    x60       c33                           811
    x60       c37                           986
    x60       c51                           615
    x60       c57                           517
    x60       c60                           712
    x60       c61                           170
    x61       obj1                            1
    x61       c9                            936
    x61       c17                           617
    x61       c19                           393
    x61       c26                           749
    x61       c27                           954
    x61       c48                           449
    x61       c62                           132
    x61       c64                           367
    x62       obj1                            1
    x62       c1                            190
    x62       c4                            242
    x62       c5                            717
    x62       c10                           352
    x62       c23                           889
    x62       c43                           680
    x62       c50                           810
    x62       c54                           482
    x62       c59                           613
    x62       c62                           573
    x63       obj1                            1
    x63       c1                            390
    x63       c8                            492
    x63       c25                           641
    x63       c35                           811
    x63       c46                           139
    x63       c59                           828
    x63       c68                           120
    x63       c70                           917
    x64       obj1                            1
    x64       c40                           681
    x64       c43                           963
    x64       c49                           455
    x65       obj1                            1
    x65       c5                            734
    x65       c8                            697
    x65       c12                           512
    x65       c48                           184
    x65       c61                           185
    x66       obj1                            1
    x66       c1                            555
    x66       c8                            620
    x66       c17                           699
    x66       c26                           132
    x66       c52                           319
    x66       c69                           304
    x67       obj1                            1
    x67       c2                            155
    x67       c21                           920
    x67       c32                           511
    x67       c40                           336
    x67       c50                           772
    x67       c51                           222
    x67       c61                           457
    x67       c66                           857
    x67       c67                           286
    x67       c70                           856
    x68       obj1                            1
    x68       c43                           380
    x68       c45                           421
    x68       c53                           607
    x68       c54                           457
    x68       c62                           667
    x69       obj1                            1
    x69       c11                           292
    x69       c27                           186
    x69       c46                           372
    x69       c47                           642
    x69       c52                           662
    x69       c54                           565
    x69       c58                           247
    x69       c65                           572
    x70       obj1                            1
    x70       c7                            518
    x70       c8                            934
    x70       c16                           282
    x70       c29                           562
    x70       c38                           585
    x70       c59                           678
    MARK0001  'MARKER'                 'INTEND'
RHS
    rhs       c1                           1557
    rhs       c2                           2268
    rhs       c3                            782
    rhs       c4                            484
    rhs       c5                           1770
    rhs       c6                           2158
    rhs       c7                           2951
    rhs       c8                           2176
    rhs       c9                           2817
    rhs       c10                          2574
    rhs       c11                          1129
    rhs       c12                          2977
    rhs       c13                          1063
    rhs       c14                           974
    rhs       c15                          1544
    rhs       c16                          2354
    rhs       c17                          2787
    rhs       c18                          1223
    rhs       c19                          1361
    rhs       c20                          2077
    rhs       c21                          2560
    rhs       c22                          1388
    rhs       c23                          2066
    rhs       c24                          1369
    rhs       c25                          2323
    rhs       c26                          2629
    rhs       c27                          1539
    rhs       c28                          1191
    rhs       c29                          2186
    rhs       c30                           975
    rhs       c31                          1393
    rhs       c32                          1467
    rhs       c33                          3081
    rhs       c34                           989
    rhs       c35                          2484
    rhs       c36                           428
    rhs       c37                          1351
    rhs       c38                          2083
    rhs       c39                          3137
    rhs       c40                          1934
    rhs       c41                          2018
    rhs       c42                           610
    rhs       c43                          1372
    rhs       c44                           949
    rhs       c45                          1694
    rhs       c46                          1794
    rhs       c47                          1148
    rhs       c48                          2238
    rhs       c49                          1540
    rhs       c50                          1964
    rhs       c51                          2255
    rhs       c52                          2305
    rhs       c53                           811
    rhs       c54                          2302
    rhs       c55                          2305
    rhs       c56                          2751
    rhs       c57                          1553
    rhs       c58                          2448
    rhs       c59                          2393
    rhs       c60                          1597
    rhs       c61                          2787
    rhs       c62                          1129
    rhs       c63                          2424
    rhs       c64                          2481
    rhs       c65                          2936
    rhs       c66                          2802
    rhs       c67                           906
    rhs       c68                          2590
    rhs       c69                          1199
    rhs       c70                          3221
BOUNDS
 LI bnd       x1        0
 LI bnd       x2        0
 LI bnd       x3        0
 LI bnd       x4        0
 LI bnd       x5        0
 LI bnd       x6        0
 LI bnd       x7        0
 LI bnd       x8        0
 LI bnd       x9        0
 LI bnd       x10       0
 LI bnd       x11       0
 LI bnd       x12       0
 LI bnd       x13       0
 LI bnd       x14       0
 LI bnd       x15       0
 LI bnd       x16       0
 LI bnd       x17       0
 LI bnd       x18       0
 LI bnd       x19       0
 LI bnd       x20       0
 LI bnd       x21       0
 LI bnd       x22       0
 LI bnd       x23       0
 LI bnd       x24       0
 LI bnd       x25       0
 LI bnd       x26       0
 LI bnd       x27       0
 LI bnd       x28       0
 LI bnd       x29       0
 LI bnd       x30       0
 LI bnd       x31       0
 LI bnd       x32       0
 LI bnd       x33       0
 LI bnd       x34       0
 LI bnd       x35       0
 LI bnd       x36       0
 LI bnd       x37       0
 LI bnd       x38       0
 LI bnd       x39       0
 LI bnd       x40       0
 LI bnd       x41       0
 LI bnd       x42       0
 LI bnd       x43       0
 LI bnd       x44       0
 LI bnd       x45       0
 LI bnd       x46       0
 LI bnd       x47       0
 LI bnd       x48       0
 LI bnd       x49       0
 LI bnd       x50       0
 LI bnd       x51       0
 LI bnd       x52       0
 LI bnd       x53       0
 LI bnd       x54       0
 LI bnd       x55       0
 LI bnd       x56       0
 LI bnd       x57       0
 LI bnd       x58       0
 LI bnd       x59       0
 LI bnd       x60       0
 LI bnd       x61       0
 LI bnd       x62       0
 LI bnd       x63       0
 LI bnd       x64       0
 LI bnd       x65       0
 LI bnd       x66       0
 LI bnd       x67       0
 LI bnd       x68       0
 LI bnd       x69       0
 LI bnd       x70       0
ENDATA
